14 0 1 11 6 4 2 13 10 12 9 5 8 3 7 0 185
999999999 2 92 70 8 9 45 9 91 69 7 27 26 81 
2 999999999 41 29 67 28 48 55 98 86 31 6 97 10 
92 41 999999999 38 20 63 59 85 69 78 47 92 85 29 
70 29 38 999999999 95 42 53 15 28 64 54 26 26 98 
8 67 20 95 999999999 53 8 73 59 44 20 81 81 67 
9 28 63 42 53 999999999 35 32 25 29 22 14 35 31 
45 48 59 53 8 35 999999999 61 54 29 65 4 59 78 
9 55 85 15 73 32 61 999999999 89 90 88 5 89 65 
91 98 69 28 59 25 54 89 999999999 53 90 39 88 88 
69 86 78 64 44 29 29 90 53 999999999 65 59 7 48 
7 31 47 54 20 22 65 88 90 65 999999999 14 2 1 
27 6 92 26 81 14 4 5 39 59 14 999999999 47 57 
26 97 85 26 81 35 59 89 88 7 2 47 999999999 55 
81 10 29 98 67 31 78 65 88 48 1 57 55 999999999 
